
Gurobi 9.0.2 (win64) logging started Sat Oct 10 13:18:45 2020

Changed value of parameter logfile to result\v6.2-20201010T1221\scenario_2030_eff050_cab0000.log
   Prev:   Default: 
Gurobi Optimizer version 9.0.2 build v9.0.2rc0 (win64)
Optimize a model with 1384150 rows, 884815 columns and 3912195 nonzeros
Model fingerprint: 0x453e2dd1
Coefficient statistics:
  Matrix range     [1e-07, 3e+05]
  Objective range  [1e+00, 1e+00]
  Bounds range     [0e+00, 0e+00]
  RHS range        [2e-05, 3e+08]
Warning: Model contains large matrix coefficient range
         Consider reformulating model or setting NumericFocus parameter
         to avoid numerical issues.

Concurrent LP optimizer: primal simplex, dual simplex, and barrier
Showing barrier log only...

Presolve removed 1138075 rows and 656242 columns
Presolve time: 3.57s
Presolved: 246075 rows, 342439 columns, 874418 nonzeros

Ordering time: 0.13s

Barrier statistics:
 Dense cols : 8
 AA' NZ     : 7.669e+05
 Factor NZ  : 4.246e+06 (roughly 270 MBytes of memory)
 Factor Ops : 1.048e+08 (less than 1 second per iteration)
 Threads    : 30

                  Objective                Residual
Iter       Primal          Dual         Primal    Dual     Compl     Time
   0  -1.81692065e+16 -1.58516845e+15  5.65e+06 1.56e+04  2.18e+12     4s
   1  -2.24234746e+15 -1.58334650e+15  6.95e+05 4.91e+06  6.80e+11     5s
   2  -1.28990550e+15 -1.27925913e+15  3.99e+05 6.88e+05  1.87e+11     5s
   3  -4.04727349e+14 -1.04774533e+15  1.24e+05 1.90e+05  5.77e+10     5s
   4  -7.78149308e+13 -5.65855727e+14  2.29e+04 2.96e+04  1.06e+10     6s
   5  -3.04378924e+13 -4.60485121e+14  9.33e+03 2.04e+04  5.58e+09     6s
   6  -1.62685095e+13 -3.20378264e+14  5.12e+03 1.09e+04  3.07e+09     6s
   7  -7.52551020e+12 -1.75078197e+14  2.47e+03 2.98e+03  1.16e+09     6s
   8  -2.15063685e+12 -8.47369728e+13  8.21e+02 4.34e+02  3.12e+08     6s
   9   4.82489599e+11 -1.66150943e+13  6.09e+00 5.92e+00  2.62e+07     7s
  10   2.19503643e+11 -1.93887161e+12  6.64e-01 6.07e-01  3.21e+06     7s
  11   1.03736488e+11 -5.72355358e+11  2.45e-01 1.36e-01  1.00e+06     8s
  12   6.54344491e+10 -4.86568379e+11  1.45e-01 1.11e-01  8.13e+05     8s
  13   5.18946255e+10 -3.89659177e+11  1.08e-01 8.05e-02  6.50e+05     8s
  14   2.53140604e+10 -1.54445045e+11  4.06e-02 5.74e-03  2.64e+05     8s
  15   1.81189379e+10 -7.81779098e+10  2.49e-02 7.45e-09  1.42e+05     9s
  16   1.28697734e+10 -5.16478778e+10  1.49e-02 7.45e-09  9.48e+04     9s
  17   1.19544842e+10 -2.19952746e+10  1.30e-02 7.45e-09  5.01e+04     9s
  18   1.17922749e+10 -1.81864548e+10  1.16e-02 7.45e-09  4.42e+04     9s
  19   8.16348663e+09 -1.37309181e+09  4.24e-03 1.12e-08  1.41e+04    10s
  20   6.38373901e+09  2.31091658e+09  1.48e-03 7.45e-09  5.99e+03    10s
  21   6.06080615e+09  3.61261623e+09  1.01e-03 5.59e-09  3.60e+03    10s
  22   5.85665474e+09  3.98645382e+09  7.10e-04 5.59e-09  2.75e+03    10s
  23   5.79461825e+09  4.32891460e+09  6.19e-04 5.59e-09  2.15e+03    11s
  24   5.72129158e+09  4.48968594e+09  5.12e-04 3.73e-09  1.81e+03    11s
  25   5.60548386e+09  4.83317715e+09  3.33e-04 2.79e-09  1.13e+03    11s
  26   5.53627388e+09  5.02429031e+09  2.38e-04 2.79e-09  7.51e+02    12s
  27   5.49733485e+09  5.13963073e+09  1.79e-04 1.86e-09  5.25e+02    12s
  28   5.45923167e+09  5.23289353e+09  1.25e-04 1.86e-09  3.32e+02    12s
  29   5.44146352e+09  5.24930319e+09  9.98e-05 1.86e-09  2.82e+02    12s
  30   5.43491067e+09  5.27618699e+09  9.02e-05 1.86e-09  2.33e+02    13s
  31   5.42127461e+09  5.29315713e+09  7.21e-05 1.86e-09  1.88e+02    13s
  32   5.41149950e+09  5.30555193e+09  5.86e-05 1.86e-09  1.55e+02    13s
  33   5.40156740e+09  5.32687834e+09  4.39e-05 1.86e-09  1.10e+02    14s
  34   5.39281770e+09  5.33561022e+09  3.08e-05 1.86e-09  8.39e+01    14s
  35   5.38822204e+09  5.34922101e+09  2.37e-05 1.86e-09  5.72e+01    14s
  36   5.38086755e+09  5.35521478e+09  1.29e-05 1.86e-09  3.76e+01    15s
  37   5.37850551e+09  5.35942158e+09  9.48e-06 1.86e-09  2.80e+01    15s
  38   5.37617161e+09  5.36263451e+09  6.06e-06 1.86e-09  1.98e+01    15s
  39   5.37436615e+09  5.36489798e+09  3.46e-06 1.86e-09  1.39e+01    16s
  40   5.37341802e+09  5.36746727e+09  2.09e-06 1.86e-09  8.72e+00    16s
  41   5.37267738e+09  5.36886852e+09  1.07e-06 1.86e-09  5.58e+00    16s
  42   5.37228837e+09  5.36991767e+09  5.71e-07 1.86e-09  3.47e+00    16s
  43   5.37212998e+09  5.37088372e+09  3.71e-07 1.86e-09  1.83e+00    17s
  44   5.37197589e+09  5.37119839e+09  1.83e-07 1.86e-09  1.14e+00    17s
  45   5.37193683e+09  5.37147671e+09  1.37e-07 1.86e-09  6.74e-01    17s
  46   5.37185637e+09  5.37169303e+09  2.90e-07 2.79e-09  2.39e-01    17s
  47   5.37182776e+09  5.37178032e+09  1.26e-07 1.86e-09  6.95e-02    18s
  48   5.37182348e+09  5.37179598e+09  7.96e-08 1.86e-09  4.03e-02    18s
  49   5.37181917e+09  5.37180408e+09  3.46e-08 1.86e-09  2.21e-02    18s
  50   5.37181665e+09  5.37180744e+09  7.94e-09 2.93e-09  1.35e-02    19s

Barrier solved model in 50 iterations and 18.67 seconds
Optimal objective 5.37181665e+09

Crossover log...

   48800 DPushes remaining with DInf 0.0000000e+00                19s
    5056 DPushes remaining with DInf 0.0000000e+00                20s
       0 DPushes remaining with DInf 0.0000000e+00                23s
Warning: Markowitz tolerance tightened to 0.25

  175208 PPushes remaining with PInf 0.0000000e+00                23s
   78763 PPushes remaining with PInf 1.8516098e-01                91s
    2694 PPushes remaining with PInf 2.2647835e-03                95s
      32 PPushes remaining with PInf 1.8511607e-03               111s
       0 PPushes remaining with PInf 0.0000000e+00               111s

  Push phase complete: Pinf 0.0000000e+00, Dinf 2.4753978e+05    111s

Iteration    Objective       Primal Inf.    Dual Inf.      Time
  198057    5.3718157e+09   0.000000e+00   2.475398e+05    112s
  200214    5.3718157e+09   0.000000e+00   0.000000e+00    116s

Solved with barrier
Solved in 200214 iterations and 115.65 seconds
Optimal objective  5.371815722e+09
Warning: unscaled primal violation = 0.000888007 and residual = 0.000888007
